networks/zoo_58_325/zoo_58_325-lower.txt
Number of groups: 26
Flow 1: {1 2 0} {2 31 0} 
Flow 2: {1 27 0} {27 26 0} {29 3 0} {3 32 0} 
Flow 2: {26 29 0} Flow 3: {1 4 0} {4 33 0} 
Flow 4: {26 8 0} {8 5 0} {5 34 0} 
Flow 5: {1 10 0} {10 7 0} {7 6 0} {6 35 0} 
Flow 6: {7 36 0} 
Flow 7: {8 37 0} 
Flow 8: {8 9 0} {9 38 0} 
Flow 9: {10 39 0} 
Flow 10: {28 11 0} {11 40 0} 
Flow 10: {26 28 0} Flow 11: {29 12 0} {12 41 0} 
Flow 12: {26 13 0} {13 42 0} 
Flow 13: {10 14 0} {14 43 0} 
Flow 14: {10 15 0} {15 44 0} 
Flow 15: {4 16 0} {16 45 0} 
Flow 16: {26 17 0} {17 46 0} 
Flow 17: {26 18 0} {18 47 0} 
Flow 18: {26 20 0} {20 49 0} 
Flow 19: {26 23 0} {23 22 0} {22 51 0} 
Flow 20: {23 52 0} 
Flow 21: {26 25 0} {25 24 0} {24 53 0} 
Flow 22: {25 54 0} 
Flow 23: {26 55 0} 
Flow 24: {27 56 0} 
Flow 25: {29 58 0} 
Flow 26: {2 1 0} {1 30 0} 
Flow 37: {3 29 0} {29 26 0} {26 4 0} {4 1 0} Flow 39: {29 8 0} {8 7 0} Flow 45: {26 27 0} Flow 49: {4 26 0} Flow 56: {5 8 0} {7 10 0} {10 1 0} Flow 57: {8 26 0} Flow 58: {8 29 0} Flow 59: {6 7 0} Flow 60: {6 8 0} Flow 65: {7 8 0} Flow 78: {8 6 0} Flow 97: {9 8 0} Flow 123: {11 28 0} {28 26 0} Flow 133: {12 29 0} Flow 148: {13 26 0} Flow 164: {14 10 0} Flow 174: {15 10 0} Flow 183: {16 4 0} Flow 184: {17 26 0} Flow 193: {18 26 0} Flow 202: {19 29 0} Flow 209: {20 26 0} Flow 219: {23 26 0} Flow 234: {23 25 0} Flow 239: {25 26 0} Flow 253: {25 23 0} Flow 281: {27 1 0} Time taken running everything: 0 seconds
