networks/zoo_58_325/zoo_58_325-lower.sol
<?xml version = "1.0" encoding="UTF-8" standalone="yes"?>
<CPLEXSolution version="1.2">
 <header
   problemName="networks/zoo_58_325/zoo_58_325-lower.lp"
   solutionName="incumbent"
   solutionIndex="-1"
   objectiveValue="31"
   solutionTypeValue="3"
   solutionTypeString="primal"
   solutionStatusValue="101"
   solutionStatusString="integer optimal solution"
   solutionMethodString="mip"
   primalFeasible="1"
   dualFeasible="1"
   MIPNodes="0"
   MIPIterations="637"
   writeLevel="3"/>
 <quality
   epInt="1.0000000000000001e-05"
   epRHS="9.9999999999999995e-07"
   maxIntInfeas="0"
   maxPrimalInfeas="0"
   maxX="1"
   maxSlack="1"/>
 <variables>
  <variable name="Y(5,6)" index="221" value="1"/>
  <variable name="Y(13,14)" index="661" value="1"/>
  <variable name="Y(14,15)" index="716" value="1"/>
  <variable name="Y(15,16)" index="771" value="1"/>
  <variable name="Y(30,10)" index="1575" value="1"/>
  <variable name="Y(39,3)" index="2054" value="1"/>
  <variable name="Y(57,8)" index="3031" value="1"/>
  <variable name="Y(59,7)" index="3138" value="1"/>
  <variable name="Y(61,29)" index="3267" value="1"/>
  <variable name="Y(100,9)" index="5354" value="1"/>
  <variable name="Y(125,7)" index="6702" value="1"/>
  <variable name="Y(136,8)" index="7297" value="1"/>
  <variable name="Y(158,22)" index="8498" value="1"/>
  <variable name="Y(167,8)" index="8971" value="1"/>
  <variable name="Y(177,13)" index="9516" value="1"/>
  <variable name="Y(183,26)" index="9852" value="1"/>
  <variable name="Y(185,4)" index="9939" value="1"/>
  <variable name="Y(198,25)" index="10661" value="1"/>
  <variable name="Y(207,27)" index="11149" value="1"/>
  <variable name="Y(214,17)" index="11518" value="1"/>
  <variable name="Y(220,2)" index="11827" value="1"/>
  <variable name="Y(232,20)" index="12493" value="1"/>
  <variable name="Y(234,24)" index="12604" value="1"/>
  <variable name="Y(245,9)" index="13184" value="1"/>
  <variable name="Y(247,12)" index="13295" value="1"/>
  <variable name="Y(254,23)" index="13683" value="1"/>
  <variable name="Y(261,5)" index="14044" value="1"/>
  <variable name="Y(267,11)" index="14374" value="1"/>
  <variable name="Y(273,18)" index="14705" value="1"/>
  <variable name="Y(281,1)" index="15120" value="1"/>
  <variable name="Y(303,3)" index="16310" value="1"/>
  <variable name="X(1,2,220)" index="17769" value="1"/>
  <variable name="X(1,4,15)" index="17889" value="1"/>
  <variable name="X(1,10,30)" index="18229" value="1"/>
  <variable name="X(1,27,177)" index="18701" value="1"/>
  <variable name="X(1,30,281)" index="19130" value="1"/>
  <variable name="X(2,1,30)" index="19204" value="1"/>
  <variable name="X(2,31,220)" index="19719" value="1"/>
  <variable name="X(3,29,39)" index="19863" value="1"/>
  <variable name="X(3,32,303)" index="20452" value="1"/>
  <variable name="X(4,1,220)" index="20694" value="1"/>
  <variable name="X(4,16,15)" index="20814" value="1"/>
  <variable name="X(4,26,183)" index="21307" value="1"/>
  <variable name="X(4,33,185)" index="21634" value="1"/>
  <variable name="X(5,8,57)" index="21831" value="1"/>
  <variable name="X(5,34,261)" index="22360" value="1"/>
  <variable name="X(6,7,59)" index="22483" value="1"/>
  <variable name="X(6,8,61)" index="22810" value="1"/>
  <variable name="X(6,35,5)" index="23079" value="1"/>
  <variable name="X(7,6,5)" index="23404" value="1"/>
  <variable name="X(7,8,167)" index="23891" value="1"/>
  <variable name="X(7,10,59)" index="24108" value="1"/>
  <variable name="X(7,36,125)" index="24499" value="1"/>
  <variable name="X(8,5,261)" index="24960" value="1"/>
  <variable name="X(8,6,136)" index="25160" value="1"/>
  <variable name="X(8,7,125)" index="25474" value="1"/>
  <variable name="X(8,9,245)" index="25919" value="1"/>
  <variable name="X(8,26,57)" index="26056" value="1"/>
  <variable name="X(8,29,61)" index="26385" value="1"/>
  <variable name="X(8,37,167)" index="26816" value="1"/>
  <variable name="X(9,8,100)" index="27074" value="1"/>
  <variable name="X(9,38,245)" index="27544" value="1"/>
  <variable name="X(10,1,177)" index="27801" value="1"/>
  <variable name="X(10,7,167)" index="28116" value="1"/>
  <variable name="X(10,14,13)" index="28287" value="1"/>
  <variable name="X(10,15,14)" index="28613" value="1"/>
  <variable name="X(10,39,30)" index="28954" value="1"/>
  <variable name="X(11,28,125)" index="29374" value="1"/>
  <variable name="X(11,40,267)" index="29841" value="1"/>
  <variable name="X(12,29,136)" index="30035" value="1"/>
  <variable name="X(12,41,247)" index="30471" value="1"/>
  <variable name="X(13,26,158)" index="30707" value="1"/>
  <variable name="X(13,42,177)" index="31051" value="1"/>
  <variable name="X(14,10,167)" index="31366" value="1"/>
  <variable name="X(14,43,13)" index="31537" value="1"/>
  <variable name="X(15,10,177)" index="32026" value="1"/>
  <variable name="X(15,44,14)" index="32188" value="1"/>
  <variable name="X(16,4,183)" index="32682" value="1"/>
  <variable name="X(16,45,15)" index="32839" value="1"/>
  <variable name="X(17,26,185)" index="33334" value="1"/>
  <variable name="X(17,46,214)" index="33688" value="1"/>
  <variable name="X(18,26,198)" index="33997" value="1"/>
  <variable name="X(18,47,273)" index="34397" value="1"/>
  <variable name="X(19,29,207)" index="34656" value="1"/>
  <variable name="X(20,26,214)" index="34988" value="1"/>
  <variable name="X(20,49,232)" index="35331" value="1"/>
  <variable name="X(22,51,158)" index="35582" value="1"/>
  <variable name="X(23,22,158)" index="35907" value="1"/>
  <variable name="X(23,25,234)" index="36308" value="1"/>
  <variable name="X(23,26,232)" index="36631" value="1"/>
  <variable name="X(23,52,254)" index="36978" value="1"/>
  <variable name="X(24,53,234)" index="37283" value="1"/>
  <variable name="X(25,23,254)" index="37628" value="1"/>
  <variable name="X(25,24,234)" index="37933" value="1"/>
  <variable name="X(25,26,247)" index="38271" value="1"/>
  <variable name="X(25,54,198)" index="38547" value="1"/>
  <variable name="X(26,4,185)" index="38859" value="1"/>
  <variable name="X(26,8,125)" index="39124" value="1"/>
  <variable name="X(26,13,177)" index="39501" value="1"/>
  <variable name="X(26,17,214)" index="39863" value="1"/>
  <variable name="X(26,18,273)" index="40247" value="1"/>
  <variable name="X(26,20,232)" index="40531" value="1"/>
  <variable name="X(26,23,158)" index="40782" value="1"/>
  <variable name="X(26,25,198)" index="41147" value="1"/>
  <variable name="X(26,27,207)" index="41481" value="1"/>
  <variable name="X(26,28,267)" index="41866" value="1"/>
  <variable name="X(26,29,247)" index="42171" value="1"/>
  <variable name="X(26,55,183)" index="42432" value="1"/>
  <variable name="X(27,1,281)" index="42855" value="1"/>
  <variable name="X(27,26,177)" index="43076" value="1"/>
  <variable name="X(27,56,207)" index="43431" value="1"/>
  <variable name="X(28,11,267)" index="43816" value="1"/>
  <variable name="X(28,26,125)" index="43999" value="1"/>
  <variable name="X(29,3,303)" index="44502" value="1"/>
  <variable name="X(29,8,136)" index="44660" value="1"/>
  <variable name="X(29,12,247)" index="45096" value="1"/>
  <variable name="X(29,26,207)" index="45381" value="1"/>
  <variable name="X(29,58,61)" index="45560" value="1"/>
 </variables>
</CPLEXSolution>
